instances/shortest_path/discrete_knapsack_uncertainty/nohadani_10_17.lp
\ Model nohadani_10_17
\ LP format - for model browsing. Use MPS format to capture full model detail.
\ Signature: 0x2a9039af97cbf6c6
Minimize
  9.219544457292887 y[0,1] + 80.77747210701756 y[0,2]
   + 77.88452991448301 y[0,3] + 15.23154621172782 y[0,5]
   + 86.46964785403026 y[0,6] + 44.40720662234904 y[0,7]
   + 14.7648230602334 y[0,8] + 71.02816342831905 y[0,9]
   + 9.219544457292887 y[1,0] + 86.31338250816034 y[1,2]
   + 82.63776376451628 y[1,3] + 21.93171219946131 y[1,5]
   + 89.82204629154248 y[1,6] + 35.90264614203248 y[1,7]
   + 15.13274595042156 y[1,8] + 62.12889826803627 y[1,9]
   + 80.77747210701756 y[2,0] + 86.31338250816034 y[2,1] + 9 y[2,3]
   + 76.90253571892151 y[2,4] + 65.55150646628954 y[2,5]
   + 23.70653918225939 y[2,6] + 72.20110802473879 y[2,8]
   + 77.88452991448301 y[3,0] + 82.63776376451628 y[3,1] + 9 y[3,2]
   + 68.15423684555495 y[3,4] + 62.81719509815764 y[3,5]
   + 16.27882059609971 y[3,6] + 68.0294054067798 y[3,8]
   + 76.90253571892151 y[4,2] + 68.15423684555495 y[4,3]
   + 93.1933474020544 y[4,5] + 54.3323108288245 y[4,6]
   + 86.00581375697809 y[4,7] + 87.66413177577246 y[4,8]
   + 15.23154621172782 y[5,0] + 21.93171219946131 y[5,1]
   + 65.55150646628954 y[5,2] + 62.81719509815764 y[5,3]
   + 93.1933474020544 y[5,4] + 72.06247289678588 y[5,6]
   + 50.63595560468865 y[5,7] + 13.0384048104053 y[5,8]
   + 77.92945527847606 y[5,9] + 86.46964785403026 y[6,0]
   + 89.82204629154248 y[6,1] + 23.70653918225939 y[6,2]
   + 16.27882059609971 y[6,3] + 54.3323108288245 y[6,4]
   + 72.06247289678588 y[6,5] + 74.73285756613352 y[6,8]
   + 44.40720662234904 y[7,0] + 35.90264614203248 y[7,1]
   + 86.00581375697809 y[7,4] + 50.63595560468865 y[7,5]
   + 37.65634076752546 y[7,8] + 27.29468812791236 y[7,9]
   + 14.7648230602334 y[8,0] + 15.13274595042156 y[8,1]
   + 72.20110802473879 y[8,2] + 68.0294054067798 y[8,3]
   + 87.66413177577246 y[8,4] + 13.0384048104053 y[8,5]
   + 74.73285756613352 y[8,6] + 37.65634076752546 y[8,7]
   + 64.93843238021688 y[8,9] + 71.02816342831905 y[9,0]
   + 62.12889826803627 y[9,1] + 77.92945527847606 y[9,5]
   + 27.29468812791236 y[9,7] + 64.93843238021688 y[9,8] + x[0,1] + x[0,2]
   + x[0,3] + x[0,5] + x[0,6] + x[0,7] + x[0,8] + x[0,9] + x[1,0] + x[1,2]
   + x[1,3] + x[1,5] + x[1,6] + x[1,7] + x[1,8] + x[1,9] + x[2,0] + x[2,1]
   + x[2,3] + x[2,4] + x[2,5] + x[2,6] + x[2,8] + x[3,0] + x[3,1] + x[3,2]
   + x[3,4] + x[3,5] + x[3,6] + x[3,8] + x[4,2] + x[4,3] + x[4,5] + x[4,6]
   + x[4,7] + x[4,8] + x[5,0] + x[5,1] + x[5,2] + x[5,3] + x[5,4] + x[5,6]
   + x[5,7] + x[5,8] + x[5,9] + x[6,0] + x[6,1] + x[6,2] + x[6,3] + x[6,4]
   + x[6,5] + x[6,8] + x[7,0] + x[7,1] + x[7,4] + x[7,5] + x[7,8] + x[7,9]
   + x[8,0] + x[8,1] + x[8,2] + x[8,3] + x[8,4] + x[8,5] + x[8,6] + x[8,7]
   + x[8,9] + x[9,0] + x[9,1] + x[9,5] + x[9,7] + x[9,8]
   + 0.9219544457292888 r[0,1] + 8.077747210701757 r[0,2]
   + 7.788452991448302 r[0,3] + 1.523154621172782 r[0,5]
   + 8.646964785403027 r[0,6] + 4.440720662234904 r[0,7]
   + 1.47648230602334 r[0,8] + 7.102816342831905 r[0,9]
   + 0.9219544457292888 r[1,0] + 8.631338250816034 r[1,2]
   + 8.263776376451629 r[1,3] + 2.193171219946131 r[1,5]
   + 8.982204629154248 r[1,6] + 3.590264614203248 r[1,7]
   + 1.513274595042156 r[1,8] + 6.212889826803627 r[1,9]
   + 8.077747210701757 r[2,0] + 8.631338250816034 r[2,1] + 0.9 r[2,3]
   + 7.690253571892152 r[2,4] + 6.555150646628954 r[2,5]
   + 2.37065391822594 r[2,6] + 7.220110802473879 r[2,8]
   + 7.788452991448302 r[3,0] + 8.263776376451629 r[3,1] + 0.9 r[3,2]
   + 6.815423684555495 r[3,4] + 6.281719509815765 r[3,5]
   + 1.627882059609971 r[3,6] + 6.80294054067798 r[3,8]
   + 7.690253571892152 r[4,2] + 6.815423684555495 r[4,3]
   + 9.31933474020544 r[4,5] + 5.43323108288245 r[4,6]
   + 8.600581375697809 r[4,7] + 8.766413177577247 r[4,8]
   + 1.523154621172782 r[5,0] + 2.193171219946131 r[5,1]
   + 6.555150646628954 r[5,2] + 6.281719509815765 r[5,3]
   + 9.31933474020544 r[5,4] + 7.206247289678588 r[5,6]
   + 5.063595560468865 r[5,7] + 1.30384048104053 r[5,8]
   + 7.792945527847606 r[5,9] + 8.646964785403027 r[6,0]
   + 8.982204629154248 r[6,1] + 2.37065391822594 r[6,2]
   + 1.627882059609971 r[6,3] + 5.43323108288245 r[6,4]
   + 7.206247289678588 r[6,5] + 7.473285756613352 r[6,8]
   + 4.440720662234904 r[7,0] + 3.590264614203248 r[7,1]
   + 8.600581375697809 r[7,4] + 5.063595560468865 r[7,5]
   + 3.765634076752546 r[7,8] + 2.729468812791236 r[7,9]
   + 1.47648230602334 r[8,0] + 1.513274595042156 r[8,1]
   + 7.220110802473879 r[8,2] + 6.80294054067798 r[8,3]
   + 8.766413177577247 r[8,4] + 1.30384048104053 r[8,5]
   + 7.473285756613352 r[8,6] + 3.765634076752546 r[8,7]
   + 6.493843238021689 r[8,9] + 7.102816342831905 r[9,0]
   + 6.212889826803627 r[9,1] + 7.792945527847606 r[9,5]
   + 2.729468812791236 r[9,7] + 6.493843238021689 r[9,8]
Subject To
 flow_cons_inner_nodes[0]: - y[0,1] - y[0,2] - y[0,3] - y[0,5] - y[0,6]
   - y[0,7] - y[0,8] - y[0,9] + y[1,0] + y[2,0] + y[3,0] + y[5,0] + y[6,0]
   + y[7,0] + y[8,0] + y[9,0] = 0
 flow_cons_inner_nodes[1]: y[0,1] - y[1,0] - y[1,2] - y[1,3] - y[1,5]
   - y[1,6] - y[1,7] - y[1,8] - y[1,9] + y[2,1] + y[3,1] + y[5,1] + y[6,1]
   + y[7,1] + y[8,1] + y[9,1] = 0
 flow_cons_inner_nodes[3]: y[0,3] + y[1,3] + y[2,3] - y[3,0] - y[3,1]
   - y[3,2] - y[3,4] - y[3,5] - y[3,6] - y[3,8] + y[4,3] + y[5,3] + y[6,3]
   + y[8,3] = 0
 flow_cons_inner_nodes[4]: y[2,4] + y[3,4] - y[4,2] - y[4,3] - y[4,5]
   - y[4,6] - y[4,7] - y[4,8] + y[5,4] + y[6,4] + y[7,4] + y[8,4] = 0
 flow_cons_inner_nodes[5]: y[0,5] + y[1,5] + y[2,5] + y[3,5] + y[4,5]
   - y[5,0] - y[5,1] - y[5,2] - y[5,3] - y[5,4] - y[5,6] - y[5,7] - y[5,8]
   - y[5,9] + y[6,5] + y[7,5] + y[8,5] + y[9,5] = 0
 flow_cons_inner_nodes[6]: y[0,6] + y[1,6] + y[2,6] + y[3,6] + y[4,6]
   + y[5,6] - y[6,0] - y[6,1] - y[6,2] - y[6,3] - y[6,4] - y[6,5] - y[6,8]
   + y[8,6] = 0
 flow_cons_inner_nodes[7]: y[0,7] + y[1,7] + y[4,7] + y[5,7] - y[7,0]
   - y[7,1] - y[7,4] - y[7,5] - y[7,8] - y[7,9] + y[8,7] + y[9,7] = 0
 flow_cons_inner_nodes[8]: y[0,8] + y[1,8] + y[2,8] + y[3,8] + y[4,8]
   + y[5,8] + y[6,8] + y[7,8] - y[8,0] - y[8,1] - y[8,2] - y[8,3] - y[8,4]
   - y[8,5] - y[8,6] - y[8,7] - y[8,9] + y[9,8] = 0
 flow_cons_source: - y[0,2] - y[1,2] + y[2,0] + y[2,1] + y[2,3] + y[2,4]
   + y[2,5] + y[2,6] + y[2,8] - y[3,2] - y[4,2] - y[5,2] - y[6,2] - y[8,2]
   = 1
 flow_cons_target: y[0,9] + y[1,9] + y[5,9] + y[7,9] + y[8,9] - y[9,0]
   - y[9,1] - y[9,5] - y[9,7] - y[9,8] = 1
 primal_lower: 4.085101413346514 x[0,1] + 2.603933474293488 x[0,2]
   + 2.657454963121908 x[0,3] + 2.052190968127744 x[0,5]
   + 1.277484086131787 x[0,6] + 2.419923474079503 x[0,7]
   + 4.092332216215717 x[0,8] + 1.60196428851069 x[0,9]
   + 1.020916770521302 x[1,0] + 0.3892261002857218 x[1,2]
   + 1.709529516964469 x[1,3] + 1.470174085762817 x[1,5]
   + 0.3482746702338276 x[1,6] + 0.1972132716747511 x[1,7]
   + 4.788210203491591 x[1,8] + 0.4620971017156713 x[1,9]
   + 3.108908676172727 x[2,0] + 3.609259300636063 x[2,1]
   + 4.32866147106683 x[2,3] + 0.7937603588297155 x[2,4]
   + 4.909662708929687 x[2,5] + 3.334763408024649 x[2,6]
   + 2.530085125885268 x[2,8] + 4.580509755023439 x[3,0]
   + 4.425117765062868 x[3,1] + 0.6133269714105419 x[3,2]
   + 1.100171555716146 x[3,4] + 2.188969343257214 x[3,5]
   + 3.724124604498135 x[3,6] + 0.3577843772251354 x[3,8]
   + 4.597659892805751 x[4,2] + 3.489713521567773 x[4,3]
   + 0.6171604056084966 x[4,5] + 1.101625024601213 x[4,6]
   + 4.272904670047733 x[4,7] + 2.862582862827181 x[4,8]
   + 3.314644392194976 x[5,0] + 2.427129376636343 x[5,1]
   + 3.806309479864899 x[5,2] + 3.68041524671 x[5,3]
   + 2.122113937907645 x[5,4] + 2.813182850166893 x[5,6]
   + 1.625684221292081 x[5,7] + 1.233279343985889 x[5,8]
   + 2.279884353858409 x[5,9] + 1.93799699891248 x[6,0]
   + 1.595237493382842 x[6,1] + 4.020985227056801 x[6,2]
   + 1.140710808829896 x[6,3] + 0.3807436286467485 x[6,4]
   + 3.188972456029317 x[6,5] + 2.663995522814741 x[6,8]
   + 4.322778834619002 x[7,0] + 1.910323391411105 x[7,1]
   + 3.270894559843174 x[7,4] + 1.070089617692154 x[7,5]
   + 4.843059319632065 x[7,8] + 3.61088972803263 x[7,9]
   + 1.302385079654962 x[8,0] + 4.422749624684754 x[8,1]
   + 3.333789990011679 x[8,2] + 3.739093887968335 x[8,3]
   + 1.605168714965444 x[8,4] + 0.768870020336509 x[8,5]
   + 2.177343006032207 x[8,6] + 4.313876667082238 x[8,7]
   + 4.274316614795883 x[8,9] + 0.5923962217052947 x[9,0]
   + 1.49335445938868 x[9,1] + 1.693832397688263 x[9,5]
   + 1.323117451420064 x[9,7] + 1.298798312291397 x[9,8] + 94 u[0,1]
   + 14 u[0,2] + 84 u[0,3] + 49 u[0,5] + 30 u[0,6] + 4 u[0,7] + 87 u[0,8]
   + 86 u[0,9] + 43 u[1,0] + 88 u[1,2] + 58 u[1,3] + 41 u[1,5] + 6 u[1,6]
   + 30 u[1,7] + 67 u[1,8] + 23 u[1,9] + 91 u[2,0] + 26 u[2,1] + 91 u[2,3]
   + 96 u[2,4] + 27 u[2,5] + 14 u[2,6] + 74 u[2,8] + 61 u[3,0] + 23 u[3,1]
   + 46 u[3,2] + 88 u[3,4] + 82 u[3,5] + 84 u[3,6] + 5 u[3,8] + 68 u[4,2]
   + 26 u[4,3] + 78 u[4,5] + 35 u[4,6] + 66 u[4,7] + 3 u[4,8] + 18 u[5,0]
   + 55 u[5,1] + 34 u[5,2] + 69 u[5,3] + 81 u[5,4] + 40 u[5,6] + 48 u[5,7]
   + 68 u[5,8] + 89 u[5,9] + 85 u[6,0] + 32 u[6,1] + 84 u[6,2] + 97 u[6,3]
   + 74 u[6,4] + 57 u[6,5] + 70 u[6,8] + 55 u[7,0] + 98 u[7,1] + 79 u[7,4]
   + 30 u[7,5] + 71 u[7,8] + 53 u[7,9] + 2 u[8,0] + 4 u[8,1] + 75 u[8,2]
   + 61 u[8,3] + 66 u[8,4] + 85 u[8,5] + 6 u[8,6] + 42 u[8,7] + 39 u[8,9]
   + 53 u[9,0] + 98 u[9,1] + 8 u[9,5] + 68 u[9,7] + 32 u[9,8] <= 355
 mccormick1[0,1]: - u[0,1] + r[0,1] <= 0
 mccormick1[0,2]: - u[0,2] + r[0,2] <= 0
 mccormick1[0,3]: - u[0,3] + r[0,3] <= 0
 mccormick1[0,5]: - u[0,5] + r[0,5] <= 0
 mccormick1[0,6]: - u[0,6] + r[0,6] <= 0
 mccormick1[0,7]: - u[0,7] + r[0,7] <= 0
 mccormick1[0,8]: - u[0,8] + r[0,8] <= 0
 mccormick1[0,9]: - u[0,9] + r[0,9] <= 0
 mccormick1[1,0]: - u[1,0] + r[1,0] <= 0
 mccormick1[1,2]: - u[1,2] + r[1,2] <= 0
 mccormick1[1,3]: - u[1,3] + r[1,3] <= 0
 mccormick1[1,5]: - u[1,5] + r[1,5] <= 0
 mccormick1[1,6]: - u[1,6] + r[1,6] <= 0
 mccormick1[1,7]: - u[1,7] + r[1,7] <= 0
 mccormick1[1,8]: - u[1,8] + r[1,8] <= 0
 mccormick1[1,9]: - u[1,9] + r[1,9] <= 0
 mccormick1[2,0]: - u[2,0] + r[2,0] <= 0
 mccormick1[2,1]: - u[2,1] + r[2,1] <= 0
 mccormick1[2,3]: - u[2,3] + r[2,3] <= 0
 mccormick1[2,4]: - u[2,4] + r[2,4] <= 0
 mccormick1[2,5]: - u[2,5] + r[2,5] <= 0
 mccormick1[2,6]: - u[2,6] + r[2,6] <= 0
 mccormick1[2,8]: - u[2,8] + r[2,8] <= 0
 mccormick1[3,0]: - u[3,0] + r[3,0] <= 0
 mccormick1[3,1]: - u[3,1] + r[3,1] <= 0
 mccormick1[3,2]: - u[3,2] + r[3,2] <= 0
 mccormick1[3,4]: - u[3,4] + r[3,4] <= 0
 mccormick1[3,5]: - u[3,5] + r[3,5] <= 0
 mccormick1[3,6]: - u[3,6] + r[3,6] <= 0
 mccormick1[3,8]: - u[3,8] + r[3,8] <= 0
 mccormick1[4,2]: - u[4,2] + r[4,2] <= 0
 mccormick1[4,3]: - u[4,3] + r[4,3] <= 0
 mccormick1[4,5]: - u[4,5] + r[4,5] <= 0
 mccormick1[4,6]: - u[4,6] + r[4,6] <= 0
 mccormick1[4,7]: - u[4,7] + r[4,7] <= 0
 mccormick1[4,8]: - u[4,8] + r[4,8] <= 0
 mccormick1[5,0]: - u[5,0] + r[5,0] <= 0
 mccormick1[5,1]: - u[5,1] + r[5,1] <= 0
 mccormick1[5,2]: - u[5,2] + r[5,2] <= 0
 mccormick1[5,3]: - u[5,3] + r[5,3] <= 0
 mccormick1[5,4]: - u[5,4] + r[5,4] <= 0
 mccormick1[5,6]: - u[5,6] + r[5,6] <= 0
 mccormick1[5,7]: - u[5,7] + r[5,7] <= 0
 mccormick1[5,8]: - u[5,8] + r[5,8] <= 0
 mccormick1[5,9]: - u[5,9] + r[5,9] <= 0
 mccormick1[6,0]: - u[6,0] + r[6,0] <= 0
 mccormick1[6,1]: - u[6,1] + r[6,1] <= 0
 mccormick1[6,2]: - u[6,2] + r[6,2] <= 0
 mccormick1[6,3]: - u[6,3] + r[6,3] <= 0
 mccormick1[6,4]: - u[6,4] + r[6,4] <= 0
 mccormick1[6,5]: - u[6,5] + r[6,5] <= 0
 mccormick1[6,8]: - u[6,8] + r[6,8] <= 0
 mccormick1[7,0]: - u[7,0] + r[7,0] <= 0
 mccormick1[7,1]: - u[7,1] + r[7,1] <= 0
 mccormick1[7,4]: - u[7,4] + r[7,4] <= 0
 mccormick1[7,5]: - u[7,5] + r[7,5] <= 0
 mccormick1[7,8]: - u[7,8] + r[7,8] <= 0
 mccormick1[7,9]: - u[7,9] + r[7,9] <= 0
 mccormick1[8,0]: - u[8,0] + r[8,0] <= 0
 mccormick1[8,1]: - u[8,1] + r[8,1] <= 0
 mccormick1[8,2]: - u[8,2] + r[8,2] <= 0
 mccormick1[8,3]: - u[8,3] + r[8,3] <= 0
 mccormick1[8,4]: - u[8,4] + r[8,4] <= 0
 mccormick1[8,5]: - u[8,5] + r[8,5] <= 0
 mccormick1[8,6]: - u[8,6] + r[8,6] <= 0
 mccormick1[8,7]: - u[8,7] + r[8,7] <= 0
 mccormick1[8,9]: - u[8,9] + r[8,9] <= 0
 mccormick1[9,0]: - u[9,0] + r[9,0] <= 0
 mccormick1[9,1]: - u[9,1] + r[9,1] <= 0
 mccormick1[9,5]: - u[9,5] + r[9,5] <= 0
 mccormick1[9,7]: - u[9,7] + r[9,7] <= 0
 mccormick1[9,8]: - u[9,8] + r[9,8] <= 0
 mccormick2[0,1]: - y[0,1] + r[0,1] <= 0
 mccormick2[0,2]: - y[0,2] + r[0,2] <= 0
 mccormick2[0,3]: - y[0,3] + r[0,3] <= 0
 mccormick2[0,5]: - y[0,5] + r[0,5] <= 0
 mccormick2[0,6]: - y[0,6] + r[0,6] <= 0
 mccormick2[0,7]: - y[0,7] + r[0,7] <= 0
 mccormick2[0,8]: - y[0,8] + r[0,8] <= 0
 mccormick2[0,9]: - y[0,9] + r[0,9] <= 0
 mccormick2[1,0]: - y[1,0] + r[1,0] <= 0
 mccormick2[1,2]: - y[1,2] + r[1,2] <= 0
 mccormick2[1,3]: - y[1,3] + r[1,3] <= 0
 mccormick2[1,5]: - y[1,5] + r[1,5] <= 0
 mccormick2[1,6]: - y[1,6] + r[1,6] <= 0
 mccormick2[1,7]: - y[1,7] + r[1,7] <= 0
 mccormick2[1,8]: - y[1,8] + r[1,8] <= 0
 mccormick2[1,9]: - y[1,9] + r[1,9] <= 0
 mccormick2[2,0]: - y[2,0] + r[2,0] <= 0
 mccormick2[2,1]: - y[2,1] + r[2,1] <= 0
 mccormick2[2,3]: - y[2,3] + r[2,3] <= 0
 mccormick2[2,4]: - y[2,4] + r[2,4] <= 0
 mccormick2[2,5]: - y[2,5] + r[2,5] <= 0
 mccormick2[2,6]: - y[2,6] + r[2,6] <= 0
 mccormick2[2,8]: - y[2,8] + r[2,8] <= 0
 mccormick2[3,0]: - y[3,0] + r[3,0] <= 0
 mccormick2[3,1]: - y[3,1] + r[3,1] <= 0
 mccormick2[3,2]: - y[3,2] + r[3,2] <= 0
 mccormick2[3,4]: - y[3,4] + r[3,4] <= 0
 mccormick2[3,5]: - y[3,5] + r[3,5] <= 0
 mccormick2[3,6]: - y[3,6] + r[3,6] <= 0
 mccormick2[3,8]: - y[3,8] + r[3,8] <= 0
 mccormick2[4,2]: - y[4,2] + r[4,2] <= 0
 mccormick2[4,3]: - y[4,3] + r[4,3] <= 0
 mccormick2[4,5]: - y[4,5] + r[4,5] <= 0
 mccormick2[4,6]: - y[4,6] + r[4,6] <= 0
 mccormick2[4,7]: - y[4,7] + r[4,7] <= 0
 mccormick2[4,8]: - y[4,8] + r[4,8] <= 0
 mccormick2[5,0]: - y[5,0] + r[5,0] <= 0
 mccormick2[5,1]: - y[5,1] + r[5,1] <= 0
 mccormick2[5,2]: - y[5,2] + r[5,2] <= 0
 mccormick2[5,3]: - y[5,3] + r[5,3] <= 0
 mccormick2[5,4]: - y[5,4] + r[5,4] <= 0
 mccormick2[5,6]: - y[5,6] + r[5,6] <= 0
 mccormick2[5,7]: - y[5,7] + r[5,7] <= 0
 mccormick2[5,8]: - y[5,8] + r[5,8] <= 0
 mccormick2[5,9]: - y[5,9] + r[5,9] <= 0
 mccormick2[6,0]: - y[6,0] + r[6,0] <= 0
 mccormick2[6,1]: - y[6,1] + r[6,1] <= 0
 mccormick2[6,2]: - y[6,2] + r[6,2] <= 0
 mccormick2[6,3]: - y[6,3] + r[6,3] <= 0
 mccormick2[6,4]: - y[6,4] + r[6,4] <= 0
 mccormick2[6,5]: - y[6,5] + r[6,5] <= 0
 mccormick2[6,8]: - y[6,8] + r[6,8] <= 0
 mccormick2[7,0]: - y[7,0] + r[7,0] <= 0
 mccormick2[7,1]: - y[7,1] + r[7,1] <= 0
 mccormick2[7,4]: - y[7,4] + r[7,4] <= 0
 mccormick2[7,5]: - y[7,5] + r[7,5] <= 0
 mccormick2[7,8]: - y[7,8] + r[7,8] <= 0
 mccormick2[7,9]: - y[7,9] + r[7,9] <= 0
 mccormick2[8,0]: - y[8,0] + r[8,0] <= 0
 mccormick2[8,1]: - y[8,1] + r[8,1] <= 0
 mccormick2[8,2]: - y[8,2] + r[8,2] <= 0
 mccormick2[8,3]: - y[8,3] + r[8,3] <= 0
 mccormick2[8,4]: - y[8,4] + r[8,4] <= 0
 mccormick2[8,5]: - y[8,5] + r[8,5] <= 0
 mccormick2[8,6]: - y[8,6] + r[8,6] <= 0
 mccormick2[8,7]: - y[8,7] + r[8,7] <= 0
 mccormick2[8,9]: - y[8,9] + r[8,9] <= 0
 mccormick2[9,0]: - y[9,0] + r[9,0] <= 0
 mccormick2[9,1]: - y[9,1] + r[9,1] <= 0
 mccormick2[9,5]: - y[9,5] + r[9,5] <= 0
 mccormick2[9,7]: - y[9,7] + r[9,7] <= 0
 mccormick2[9,8]: - y[9,8] + r[9,8] <= 0
 mccormick3[0,1]: - y[0,1] - u[0,1] + r[0,1] >= -1
 mccormick3[0,2]: - y[0,2] - u[0,2] + r[0,2] >= -1
 mccormick3[0,3]: - y[0,3] - u[0,3] + r[0,3] >= -1
 mccormick3[0,5]: - y[0,5] - u[0,5] + r[0,5] >= -1
 mccormick3[0,6]: - y[0,6] - u[0,6] + r[0,6] >= -1
 mccormick3[0,7]: - y[0,7] - u[0,7] + r[0,7] >= -1
 mccormick3[0,8]: - y[0,8] - u[0,8] + r[0,8] >= -1
 mccormick3[0,9]: - y[0,9] - u[0,9] + r[0,9] >= -1
 mccormick3[1,0]: - y[1,0] - u[1,0] + r[1,0] >= -1
 mccormick3[1,2]: - y[1,2] - u[1,2] + r[1,2] >= -1
 mccormick3[1,3]: - y[1,3] - u[1,3] + r[1,3] >= -1
 mccormick3[1,5]: - y[1,5] - u[1,5] + r[1,5] >= -1
 mccormick3[1,6]: - y[1,6] - u[1,6] + r[1,6] >= -1
 mccormick3[1,7]: - y[1,7] - u[1,7] + r[1,7] >= -1
 mccormick3[1,8]: - y[1,8] - u[1,8] + r[1,8] >= -1
 mccormick3[1,9]: - y[1,9] - u[1,9] + r[1,9] >= -1
 mccormick3[2,0]: - y[2,0] - u[2,0] + r[2,0] >= -1
 mccormick3[2,1]: - y[2,1] - u[2,1] + r[2,1] >= -1
 mccormick3[2,3]: - y[2,3] - u[2,3] + r[2,3] >= -1
 mccormick3[2,4]: - y[2,4] - u[2,4] + r[2,4] >= -1
 mccormick3[2,5]: - y[2,5] - u[2,5] + r[2,5] >= -1
 mccormick3[2,6]: - y[2,6] - u[2,6] + r[2,6] >= -1
 mccormick3[2,8]: - y[2,8] - u[2,8] + r[2,8] >= -1
 mccormick3[3,0]: - y[3,0] - u[3,0] + r[3,0] >= -1
 mccormick3[3,1]: - y[3,1] - u[3,1] + r[3,1] >= -1
 mccormick3[3,2]: - y[3,2] - u[3,2] + r[3,2] >= -1
 mccormick3[3,4]: - y[3,4] - u[3,4] + r[3,4] >= -1
 mccormick3[3,5]: - y[3,5] - u[3,5] + r[3,5] >= -1
 mccormick3[3,6]: - y[3,6] - u[3,6] + r[3,6] >= -1
 mccormick3[3,8]: - y[3,8] - u[3,8] + r[3,8] >= -1
 mccormick3[4,2]: - y[4,2] - u[4,2] + r[4,2] >= -1
 mccormick3[4,3]: - y[4,3] - u[4,3] + r[4,3] >= -1
 mccormick3[4,5]: - y[4,5] - u[4,5] + r[4,5] >= -1
 mccormick3[4,6]: - y[4,6] - u[4,6] + r[4,6] >= -1
 mccormick3[4,7]: - y[4,7] - u[4,7] + r[4,7] >= -1
 mccormick3[4,8]: - y[4,8] - u[4,8] + r[4,8] >= -1
 mccormick3[5,0]: - y[5,0] - u[5,0] + r[5,0] >= -1
 mccormick3[5,1]: - y[5,1] - u[5,1] + r[5,1] >= -1
 mccormick3[5,2]: - y[5,2] - u[5,2] + r[5,2] >= -1
 mccormick3[5,3]: - y[5,3] - u[5,3] + r[5,3] >= -1
 mccormick3[5,4]: - y[5,4] - u[5,4] + r[5,4] >= -1
 mccormick3[5,6]: - y[5,6] - u[5,6] + r[5,6] >= -1
 mccormick3[5,7]: - y[5,7] - u[5,7] + r[5,7] >= -1
 mccormick3[5,8]: - y[5,8] - u[5,8] + r[5,8] >= -1
 mccormick3[5,9]: - y[5,9] - u[5,9] + r[5,9] >= -1
 mccormick3[6,0]: - y[6,0] - u[6,0] + r[6,0] >= -1
 mccormick3[6,1]: - y[6,1] - u[6,1] + r[6,1] >= -1
 mccormick3[6,2]: - y[6,2] - u[6,2] + r[6,2] >= -1
 mccormick3[6,3]: - y[6,3] - u[6,3] + r[6,3] >= -1
 mccormick3[6,4]: - y[6,4] - u[6,4] + r[6,4] >= -1
 mccormick3[6,5]: - y[6,5] - u[6,5] + r[6,5] >= -1
 mccormick3[6,8]: - y[6,8] - u[6,8] + r[6,8] >= -1
 mccormick3[7,0]: - y[7,0] - u[7,0] + r[7,0] >= -1
 mccormick3[7,1]: - y[7,1] - u[7,1] + r[7,1] >= -1
 mccormick3[7,4]: - y[7,4] - u[7,4] + r[7,4] >= -1
 mccormick3[7,5]: - y[7,5] - u[7,5] + r[7,5] >= -1
 mccormick3[7,8]: - y[7,8] - u[7,8] + r[7,8] >= -1
 mccormick3[7,9]: - y[7,9] - u[7,9] + r[7,9] >= -1
 mccormick3[8,0]: - y[8,0] - u[8,0] + r[8,0] >= -1
 mccormick3[8,1]: - y[8,1] - u[8,1] + r[8,1] >= -1
 mccormick3[8,2]: - y[8,2] - u[8,2] + r[8,2] >= -1
 mccormick3[8,3]: - y[8,3] - u[8,3] + r[8,3] >= -1
 mccormick3[8,4]: - y[8,4] - u[8,4] + r[8,4] >= -1
 mccormick3[8,5]: - y[8,5] - u[8,5] + r[8,5] >= -1
 mccormick3[8,6]: - y[8,6] - u[8,6] + r[8,6] >= -1
 mccormick3[8,7]: - y[8,7] - u[8,7] + r[8,7] >= -1
 mccormick3[8,9]: - y[8,9] - u[8,9] + r[8,9] >= -1
 mccormick3[9,0]: - y[9,0] - u[9,0] + r[9,0] >= -1
 mccormick3[9,1]: - y[9,1] - u[9,1] + r[9,1] >= -1
 mccormick3[9,5]: - y[9,5] - u[9,5] + r[9,5] >= -1
 mccormick3[9,7]: - y[9,7] - u[9,7] + r[9,7] >= -1
 mccormick3[9,8]: - y[9,8] - u[9,8] + r[9,8] >= -1
Bounds
Binaries
 y[0,1] y[0,2] y[0,3] y[0,5] y[0,6] y[0,7] y[0,8] y[0,9] y[1,0] y[1,2]
 y[1,3] y[1,5] y[1,6] y[1,7] y[1,8] y[1,9] y[2,0] y[2,1] y[2,3] y[2,4]
 y[2,5] y[2,6] y[2,8] y[3,0] y[3,1] y[3,2] y[3,4] y[3,5] y[3,6] y[3,8]
 y[4,2] y[4,3] y[4,5] y[4,6] y[4,7] y[4,8] y[5,0] y[5,1] y[5,2] y[5,3]
 y[5,4] y[5,6] y[5,7] y[5,8] y[5,9] y[6,0] y[6,1] y[6,2] y[6,3] y[6,4]
 y[6,5] y[6,8] y[7,0] y[7,1] y[7,4] y[7,5] y[7,8] y[7,9] y[8,0] y[8,1]
 y[8,2] y[8,3] y[8,4] y[8,5] y[8,6] y[8,7] y[8,9] y[9,0] y[9,1] y[9,5]
 y[9,7] y[9,8] x[0,1] x[0,2] x[0,3] x[0,5] x[0,6] x[0,7] x[0,8] x[0,9]
 x[1,0] x[1,2] x[1,3] x[1,5] x[1,6] x[1,7] x[1,8] x[1,9] x[2,0] x[2,1]
 x[2,3] x[2,4] x[2,5] x[2,6] x[2,8] x[3,0] x[3,1] x[3,2] x[3,4] x[3,5]
 x[3,6] x[3,8] x[4,2] x[4,3] x[4,5] x[4,6] x[4,7] x[4,8] x[5,0] x[5,1]
 x[5,2] x[5,3] x[5,4] x[5,6] x[5,7] x[5,8] x[5,9] x[6,0] x[6,1] x[6,2]
 x[6,3] x[6,4] x[6,5] x[6,8] x[7,0] x[7,1] x[7,4] x[7,5] x[7,8] x[7,9]
 x[8,0] x[8,1] x[8,2] x[8,3] x[8,4] x[8,5] x[8,6] x[8,7] x[8,9] x[9,0]
 x[9,1] x[9,5] x[9,7] x[9,8] u[0,1] u[0,2] u[0,3] u[0,5] u[0,6] u[0,7]
 u[0,8] u[0,9] u[1,0] u[1,2] u[1,3] u[1,5] u[1,6] u[1,7] u[1,8] u[1,9]
 u[2,0] u[2,1] u[2,3] u[2,4] u[2,5] u[2,6] u[2,8] u[3,0] u[3,1] u[3,2]
 u[3,4] u[3,5] u[3,6] u[3,8] u[4,2] u[4,3] u[4,5] u[4,6] u[4,7] u[4,8]
 u[5,0] u[5,1] u[5,2] u[5,3] u[5,4] u[5,6] u[5,7] u[5,8] u[5,9] u[6,0]
 u[6,1] u[6,2] u[6,3] u[6,4] u[6,5] u[6,8] u[7,0] u[7,1] u[7,4] u[7,5]
 u[7,8] u[7,9] u[8,0] u[8,1] u[8,2] u[8,3] u[8,4] u[8,5] u[8,6] u[8,7]
 u[8,9] u[9,0] u[9,1] u[9,5] u[9,7] u[9,8] r[0,1] r[0,2] r[0,3] r[0,5]
 r[0,6] r[0,7] r[0,8] r[0,9] r[1,0] r[1,2] r[1,3] r[1,5] r[1,6] r[1,7]
 r[1,8] r[1,9] r[2,0] r[2,1] r[2,3] r[2,4] r[2,5] r[2,6] r[2,8] r[3,0]
 r[3,1] r[3,2] r[3,4] r[3,5] r[3,6] r[3,8] r[4,2] r[4,3] r[4,5] r[4,6]
 r[4,7] r[4,8] r[5,0] r[5,1] r[5,2] r[5,3] r[5,4] r[5,6] r[5,7] r[5,8]
 r[5,9] r[6,0] r[6,1] r[6,2] r[6,3] r[6,4] r[6,5] r[6,8] r[7,0] r[7,1]
 r[7,4] r[7,5] r[7,8] r[7,9] r[8,0] r[8,1] r[8,2] r[8,3] r[8,4] r[8,5]
 r[8,6] r[8,7] r[8,9] r[9,0] r[9,1] r[9,5] r[9,7] r[9,8]
End
