instances/shortest_path/discrete_knapsack_uncertainty/nohadani_10_17.kp
26526
355

[4.085101413346514 2.6039334742934876 2.6574549631219084 2.0521909681277437 1.2774840861317869 2.4199234740795035 4.092332216215717 1.6019642885106897 1.0209167705213025 0.3892261002857218 1.7095295169644693 1.470174085762817 0.34827467023382763 0.1972132716747511 4.788210203491591 0.4620971017156713 3.108908676172727 3.6092593006360634 4.32866147106683 0.7937603588297155 4.909662708929687 3.334763408024649 2.5300851258852677 4.580509755023439 4.425117765062868 0.6133269714105419 1.1001715557161456 2.1889693432572144 3.724124604498135 0.3577843772251354 4.597659892805751 3.489713521567773 0.6171604056084966 1.1016250246012127 4.272904670047733 2.8625828628271806 3.3146443921949764 2.4271293766363433 3.806309479864899 3.6804152467099995 2.1221139379076455 2.813182850166893 1.625684221292081 1.2332793439858887 2.2798843538584093 1.9379969989124801 1.5952374933828424 4.020985227056801 1.1407108088298963 0.38074362864674854 3.188972456029317 2.6639955228147407 4.322778834619002 1.9103233914111046 3.270894559843174 1.0700896176921537 4.843059319632065 3.6108897280326304 1.3023850796549623 4.422749624684754 3.3337899900116787 3.739093887968335 1.6051687149654443 0.768870020336509 2.1773430060322068 4.313876667082238 4.274316614795883 0.5923962217052947 1.4933544593886798 1.6938323976882625 1.3231174514200637 1.298798312291397]

[94 14 84 49 30 4 87 86 43 88 58 41 6 30 67 23 91 26 91 96 27 14 74 61 23 46 88 82 84 5 68 26 78 35 66 3 18 55 34 69 81 40 48 68 89 85 32 84 97 74 57 70 55 98 79 30 71 53 2 4 75 61 66 85 6 42 39 53 98 8 68 32]
